benchmarks/VRPTW/TSPTW/solution/n60w80.002.txt.solution
1 7 39 52 60 16 44 20 32 35 55 43 49 19 34 15 17 9 59 37 29 14 30 56 41 24 8 33 48 54 5 18 57 23 11 4 45 12 22 53 51 31 46 27 13 28 6 26 3 38 2 36 42 58 21 25 40 61 47 10 50 
498
